Route 1: 0 42 45 10 46 2 94 96 62 67 0
Route 2: 0 5 69 35 33 32 11 43 77 0
Route 3: 0 82 93 4 18 14 37 90 81 50 0
Route 4: 0 15 38 19 40 59 66 88 16 0
Route 5: 0 100 74 61 68 17 34 86 39 72 0
Route 6: 0 76 12 6 75 58 3 1 70 27 9 23 63 0
Route 7: 0 57 64 20 91 31 83 0
Route 8: 0 60 7 78 28 80 55 98 97 29 0
Route 9: 0 65 99 85 54 89 41 21 71 8 92 79 25 0
Route 10: 0 53 26 36 30 73 48 51 49 56 0
Route 11: 0 22 24 44 47 52 13 95 0
Route 12: 0 84 87 0
